result&benchmarks/Data/Ex1/verify/Output/underapprox_1-1_process_dc_iter1Output/Counterexample.3.smt2
(set-info :source |printed by MathSAT|)
(declare-fun |main::local_18@3| () (_ BitVec 32))
(declare-fun |main::local_14@3| () (_ BitVec 32))
(declare-fun |main::local_18@4| () (_ BitVec 32))
(declare-fun |main::local_14@4| () (_ BitVec 32))
(declare-fun |main::local_18@5| () (_ BitVec 32))
(declare-fun |main::local_14@5| () (_ BitVec 32))
(declare-fun |main::local_18@6| () (_ BitVec 32))
(declare-fun |main::local_14@6| () (_ BitVec 32))
(declare-fun |main::local_18@7| () (_ BitVec 32))
(declare-fun |main::local_14@7| () (_ BitVec 32))
(declare-fun |main::local_18@8| () (_ BitVec 32))
(declare-fun |main::local_14@8| () (_ BitVec 32))
(declare-fun |main::local_18@9| () (_ BitVec 32))
(declare-fun |main::local_14@9| () (_ BitVec 32))
(assert (let ((.def_17 (bvult |main::local_14@3| (_ bv6 32))))(let ((.def_14 (= |main::local_14@3| (_ bv0 32))))(let ((.def_12 (= |main::local_18@3| (_ bv1 32))))(let ((.def_15 (and .def_12 .def_14)))(let ((.def_210 (and .def_15 .def_17)))(let ((.def_52 (bvshl |main::local_18@3| (_ bv1 32))))(let ((.def_54 (= .def_52 |main::local_18@4|)))(let ((.def_211 (and .def_54 .def_210)))(let ((.def_57 (bvadd (_ bv1 32) |main::local_14@3|)))(let ((.def_59 (= .def_57 |main::local_14@4|)))(let ((.def_212 (and .def_59 .def_211)))(let ((.def_61 (bvult |main::local_14@4| (_ bv6 32))))(let ((.def_213 (and .def_61 .def_212)))(let ((.def_73 (bvshl |main::local_18@4| (_ bv1 32))))(let ((.def_75 (= .def_73 |main::local_18@5|)))(let ((.def_214 (and .def_75 .def_213)))(let ((.def_78 (bvadd (_ bv1 32) |main::local_14@4|)))(let ((.def_80 (= .def_78 |main::local_14@5|)))(let ((.def_215 (and .def_80 .def_214)))(let ((.def_82 (bvult |main::local_14@5| (_ bv6 32))))(let ((.def_216 (and .def_82 .def_215)))(let ((.def_112 (bvshl |main::local_18@5| (_ bv1 32))))(let ((.def_114 (= .def_112 |main::local_18@6|)))(let ((.def_217 (and .def_114 .def_216)))(let ((.def_117 (bvadd (_ bv1 32) |main::local_14@5|)))(let ((.def_119 (= .def_117 |main::local_14@6|)))(let ((.def_218 (and .def_119 .def_217)))(let ((.def_121 (bvult |main::local_14@6| (_ bv6 32))))(let ((.def_219 (and .def_121 .def_218)))(let ((.def_134 (bvshl |main::local_18@6| (_ bv1 32))))(let ((.def_136 (= .def_134 |main::local_18@7|)))(let ((.def_220 (and .def_136 .def_219)))(let ((.def_139 (bvadd (_ bv1 32) |main::local_14@6|)))(let ((.def_141 (= .def_139 |main::local_14@7|)))(let ((.def_221 (and .def_141 .def_220)))(let ((.def_143 (bvult |main::local_14@7| (_ bv6 32))))(let ((.def_222 (and .def_143 .def_221)))(let ((.def_155 (bvshl |main::local_18@7| (_ bv1 32))))(let ((.def_157 (= .def_155 |main::local_18@8|)))(let ((.def_223 (and .def_157 .def_222)))(let ((.def_160 (bvadd (_ bv1 32) |main::local_14@7|)))(let ((.def_162 (= .def_160 |main::local_14@8|)))(let ((.def_224 (and .def_162 .def_223)))(let ((.def_164 (bvult |main::local_14@8| (_ bv6 32))))(let ((.def_225 (and .def_164 .def_224)))(let ((.def_177 (bvshl |main::local_18@8| (_ bv1 32))))(let ((.def_179 (= .def_177 |main::local_18@9|)))(let ((.def_226 (and .def_179 .def_225)))(let ((.def_182 (bvadd (_ bv1 32) |main::local_14@8|)))(let ((.def_184 (= .def_182 |main::local_14@9|)))(let ((.def_227 (and .def_184 .def_226)))(let ((.def_186 (bvult |main::local_14@9| (_ bv6 32))))(let ((.def_188 (not .def_186)))(let ((.def_228 (and .def_188 .def_227)))(let ((.def_191 (= |main::local_18@9| (_ bv64 32))))(let ((.def_229 (and .def_191 .def_228))).def_229)))))))))))))))))))))))))))))))))))))))))))))))))))))))))