result&benchmarks/Data/Ex1/verify/Output/underapprox_1-1_process_dc_iter1Output/Counterexample.3.txt
none:	N37 -{INIT GLOBAL VARS}-> N64
/usr/include/assert.h, lines 69-71:	N64 -{void __assert_fail(const char *__assertion, const char *__file, unsigned int __line, const char *__function);}-> N65
/usr/include/assert.h, lines 74-76:	N65 -{void __assert_perror_fail(int __errnum, const char *__file, unsigned int __line, const char *__function);}-> N66
/usr/include/assert.h, lines 81-82:	N66 -{void __assert(const char *__assertion, const char *__file, int __line);}-> N67
/usr/include/x86_64-linux-gnu/bits/types.h, line 31:	N67 -{typedef unsigned char __u_char;}-> N68
/usr/include/x86_64-linux-gnu/bits/types.h, line 32:	N68 -{typedef unsigned short int __u_short;}-> N69
/usr/include/x86_64-linux-gnu/bits/types.h, line 33:	N69 -{typedef unsigned int __u_int;}-> N70
/usr/include/x86_64-linux-gnu/bits/types.h, line 34:	N70 -{typedef unsigned long int __u_long;}-> N71
/usr/include/x86_64-linux-gnu/bits/types.h, line 37:	N71 -{typedef signed char __int8_t;}-> N72
/usr/include/x86_64-linux-gnu/bits/types.h, line 38:	N72 -{typedef unsigned char __uint8_t;}-> N73
/usr/include/x86_64-linux-gnu/bits/types.h, line 39:	N73 -{typedef signed short int __int16_t;}-> N74
/usr/include/x86_64-linux-gnu/bits/types.h, line 40:	N74 -{typedef unsigned short int __uint16_t;}-> N75
/usr/include/x86_64-linux-gnu/bits/types.h, line 41:	N75 -{typedef signed int __int32_t;}-> N76
/usr/include/x86_64-linux-gnu/bits/types.h, line 42:	N76 -{typedef unsigned int __uint32_t;}-> N77
/usr/include/x86_64-linux-gnu/bits/types.h, line 44:	N77 -{typedef signed long int __int64_t;}-> N78
/usr/include/x86_64-linux-gnu/bits/types.h, line 45:	N78 -{typedef unsigned long int __uint64_t;}-> N79
/usr/include/x86_64-linux-gnu/bits/types.h, line 52:	N79 -{typedef __int8_t __int_least8_t;}-> N80
/usr/include/x86_64-linux-gnu/bits/types.h, line 53:	N80 -{typedef __uint8_t __uint_least8_t;}-> N81
/usr/include/x86_64-linux-gnu/bits/types.h, line 54:	N81 -{typedef __int16_t __int_least16_t;}-> N82
/usr/include/x86_64-linux-gnu/bits/types.h, line 55:	N82 -{typedef __uint16_t __uint_least16_t;}-> N83
/usr/include/x86_64-linux-gnu/bits/types.h, line 56:	N83 -{typedef __int32_t __int_least32_t;}-> N84
/usr/include/x86_64-linux-gnu/bits/types.h, line 57:	N84 -{typedef __uint32_t __uint_least32_t;}-> N85
/usr/include/x86_64-linux-gnu/bits/types.h, line 58:	N85 -{typedef __int64_t __int_least64_t;}-> N86
/usr/include/x86_64-linux-gnu/bits/types.h, line 59:	N86 -{typedef __uint64_t __uint_least64_t;}-> N87
/usr/include/x86_64-linux-gnu/bits/types.h, line 63:	N87 -{typedef long int __quad_t;}-> N88
/usr/include/x86_64-linux-gnu/bits/types.h, line 64:	N88 -{typedef unsigned long int __u_quad_t;}-> N89
/usr/include/x86_64-linux-gnu/bits/types.h, line 72:	N89 -{typedef long int __intmax_t;}-> N90
/usr/include/x86_64-linux-gnu/bits/types.h, line 73:	N90 -{typedef unsigned long int __uintmax_t;}-> N91
/usr/include/x86_64-linux-gnu/bits/types.h, line 145:	N91 -{typedef unsigned long int __dev_t;}-> N92
/usr/include/x86_64-linux-gnu/bits/types.h, line 146:	N92 -{typedef unsigned int __uid_t;}-> N93
/usr/include/x86_64-linux-gnu/bits/types.h, line 147:	N93 -{typedef unsigned int __gid_t;}-> N94
/usr/include/x86_64-linux-gnu/bits/types.h, line 148:	N94 -{typedef unsigned long int __ino_t;}-> N95
/usr/include/x86_64-linux-gnu/bits/types.h, line 149:	N95 -{typedef unsigned long int __ino64_t;}-> N96
/usr/include/x86_64-linux-gnu/bits/types.h, line 150:	N96 -{typedef unsigned int __mode_t;}-> N97
/usr/include/x86_64-linux-gnu/bits/types.h, line 151:	N97 -{typedef unsigned long int __nlink_t;}-> N98
/usr/include/x86_64-linux-gnu/bits/types.h, line 152:	N98 -{typedef long int __off_t;}-> N99
/usr/include/x86_64-linux-gnu/bits/types.h, line 153:	N99 -{typedef long int __off64_t;}-> N100
/usr/include/x86_64-linux-gnu/bits/types.h, line 154:	N100 -{typedef int __pid_t;}-> N101
/usr/include/x86_64-linux-gnu/bits/types.h, line 155:	N101 -{struct __anon_type___fsid_t {   int __val[2]; } ;}-> N102
/usr/include/x86_64-linux-gnu/bits/types.h, line 155:	N102 -{typedef struct __anon_type___fsid_t __fsid_t;}-> N103
/usr/include/x86_64-linux-gnu/bits/types.h, line 156:	N103 -{typedef long int __clock_t;}-> N104
/usr/include/x86_64-linux-gnu/bits/types.h, line 157:	N104 -{typedef unsigned long int __rlim_t;}-> N105
/usr/include/x86_64-linux-gnu/bits/types.h, line 158:	N105 -{typedef unsigned long int __rlim64_t;}-> N106
/usr/include/x86_64-linux-gnu/bits/types.h, line 159:	N106 -{typedef unsigned int __id_t;}-> N107
/usr/include/x86_64-linux-gnu/bits/types.h, line 160:	N107 -{typedef long int __time_t;}-> N108
/usr/include/x86_64-linux-gnu/bits/types.h, line 161:	N108 -{typedef unsigned int __useconds_t;}-> N109
/usr/include/x86_64-linux-gnu/bits/types.h, line 162:	N109 -{typedef long int __suseconds_t;}-> N110
/usr/include/x86_64-linux-gnu/bits/types.h, line 163:	N110 -{typedef long int __suseconds64_t;}-> N111
/usr/include/x86_64-linux-gnu/bits/types.h, line 165:	N111 -{typedef int __daddr_t;}-> N112
/usr/include/x86_64-linux-gnu/bits/types.h, line 166:	N112 -{typedef int __key_t;}-> N113
/usr/include/x86_64-linux-gnu/bits/types.h, line 169:	N113 -{typedef int __clockid_t;}-> N114
/usr/include/x86_64-linux-gnu/bits/types.h, line 172:	N114 -{typedef void *__timer_t;}-> N115
/usr/include/x86_64-linux-gnu/bits/types.h, line 175:	N115 -{typedef long int __blksize_t;}-> N116
/usr/include/x86_64-linux-gnu/bits/types.h, line 180:	N116 -{typedef long int __blkcnt_t;}-> N117
/usr/include/x86_64-linux-gnu/bits/types.h, line 181:	N117 -{typedef long int __blkcnt64_t;}-> N118
/usr/include/x86_64-linux-gnu/bits/types.h, line 184:	N118 -{typedef unsigned long int __fsblkcnt_t;}-> N119
/usr/include/x86_64-linux-gnu/bits/types.h, line 185:	N119 -{typedef unsigned long int __fsblkcnt64_t;}-> N120
/usr/include/x86_64-linux-gnu/bits/types.h, line 188:	N120 -{typedef unsigned long int __fsfilcnt_t;}-> N121
/usr/include/x86_64-linux-gnu/bits/types.h, line 189:	N121 -{typedef unsigned long int __fsfilcnt64_t;}-> N122
/usr/include/x86_64-linux-gnu/bits/types.h, line 192:	N122 -{typedef long int __fsword_t;}-> N123
/usr/include/x86_64-linux-gnu/bits/types.h, line 194:	N123 -{typedef long int __ssize_t;}-> N124
/usr/include/x86_64-linux-gnu/bits/types.h, line 197:	N124 -{typedef long int __syscall_slong_t;}-> N125
/usr/include/x86_64-linux-gnu/bits/types.h, line 199:	N125 -{typedef unsigned long int __syscall_ulong_t;}-> N126
/usr/include/x86_64-linux-gnu/bits/types.h, line 203:	N126 -{typedef __off64_t __loff_t;}-> N127
/usr/include/x86_64-linux-gnu/bits/types.h, line 204:	N127 -{typedef char *__caddr_t;}-> N128
/usr/include/x86_64-linux-gnu/bits/types.h, line 207:	N128 -{typedef long int __intptr_t;}-> N129
/usr/include/x86_64-linux-gnu/bits/types.h, line 210:	N129 -{typedef unsigned int __socklen_t;}-> N130
/usr/include/x86_64-linux-gnu/bits/types.h, line 215:	N130 -{typedef int __sig_atomic_t;}-> N131
/usr/include/x86_64-linux-gnu/bits/stdint-intn.h, line 24:	N131 -{typedef __int8_t int8_t;}-> N132
/usr/include/x86_64-linux-gnu/bits/stdint-intn.h, line 25:	N132 -{typedef __int16_t int16_t;}-> N133
/usr/include/x86_64-linux-gnu/bits/stdint-intn.h, line 26:	N133 -{typedef __int32_t int32_t;}-> N134
/usr/include/x86_64-linux-gnu/bits/stdint-intn.h, line 27:	N134 -{typedef __int64_t int64_t;}-> N135
/usr/include/x86_64-linux-gnu/bits/stdint-uintn.h, line 24:	N135 -{typedef __uint8_t uint8_t;}-> N136
/usr/include/x86_64-linux-gnu/bits/stdint-uintn.h, line 25:	N136 -{typedef __uint16_t uint16_t;}-> N137
/usr/include/x86_64-linux-gnu/bits/stdint-uintn.h, line 26:	N137 -{typedef __uint32_t uint32_t;}-> N138
/usr/include/x86_64-linux-gnu/bits/stdint-uintn.h, line 27:	N138 -{typedef __uint64_t uint64_t;}-> N139
/usr/include/stdint.h, line 43:	N139 -{typedef __int_least8_t int_least8_t;}-> N140
/usr/include/stdint.h, line 44:	N140 -{typedef __int_least16_t int_least16_t;}-> N141
/usr/include/stdint.h, line 45:	N141 -{typedef __int_least32_t int_least32_t;}-> N142
/usr/include/stdint.h, line 46:	N142 -{typedef __int_least64_t int_least64_t;}-> N143
/usr/include/stdint.h, line 49:	N143 -{typedef __uint_least8_t uint_least8_t;}-> N144
/usr/include/stdint.h, line 50:	N144 -{typedef __uint_least16_t uint_least16_t;}-> N145
/usr/include/stdint.h, line 51:	N145 -{typedef __uint_least32_t uint_least32_t;}-> N146
/usr/include/stdint.h, line 52:	N146 -{typedef __uint_least64_t uint_least64_t;}-> N147
/usr/include/stdint.h, line 58:	N147 -{typedef signed char int_fast8_t;}-> N148
/usr/include/stdint.h, line 60:	N148 -{typedef long int int_fast16_t;}-> N149
/usr/include/stdint.h, line 61:	N149 -{typedef long int int_fast32_t;}-> N150
/usr/include/stdint.h, line 62:	N150 -{typedef long int int_fast64_t;}-> N151
/usr/include/stdint.h, line 71:	N151 -{typedef unsigned char uint_fast8_t;}-> N152
/usr/include/stdint.h, line 73:	N152 -{typedef unsigned long int uint_fast16_t;}-> N153
/usr/include/stdint.h, line 74:	N153 -{typedef unsigned long int uint_fast32_t;}-> N154
/usr/include/stdint.h, line 75:	N154 -{typedef unsigned long int uint_fast64_t;}-> N155
/usr/include/stdint.h, line 87:	N155 -{typedef long int intptr_t;}-> N156
/usr/include/stdint.h, line 90:	N156 -{typedef unsigned long int uintptr_t;}-> N157
/usr/include/stdint.h, line 101:	N157 -{typedef __intmax_t intmax_t;}-> N158
/usr/include/stdint.h, line 102:	N158 -{typedef __uintmax_t uintmax_t;}-> N159
/usr/lib/gcc/x86_64-linux-gnu/11/include/stddef.h, line 209:	N159 -{typedef unsigned long int size_t;}-> N160
/usr/lib/gcc/x86_64-linux-gnu/11/include/stddef.h, line 321:	N160 -{typedef int wchar_t;}-> N161
/usr/include/stdlib.h, lines 59-63:	N161 -{struct __anon_type_div_t {   int quot;   int rem; } ;}-> N162
/usr/include/stdlib.h, lines 59-63:	N162 -{typedef struct __anon_type_div_t div_t;}-> N163
/usr/include/stdlib.h, lines 67-71:	N163 -{struct __anon_type_ldiv_t {   long int quot;   long int rem; } ;}-> N164
/usr/include/stdlib.h, lines 67-71:	N164 -{typedef struct __anon_type_ldiv_t ldiv_t;}-> N165
/usr/include/stdlib.h, lines 77-81:	N165 -{struct __anon_type_lldiv_t {   long long int quot;   long long int rem; } ;}-> N166
/usr/include/stdlib.h, lines 77-81:	N166 -{typedef struct __anon_type_lldiv_t lldiv_t;}-> N167
/usr/include/stdlib.h, line 98:	N167 -{size_t __ctype_get_mb_cur_max();}-> N168
/usr/include/stdlib.h, lines 102-103:	N168 -{double atof(const char *__nptr);}-> N169
/usr/include/stdlib.h, lines 105-106:	N169 -{int atoi(const char *__nptr);}-> N170
/usr/include/stdlib.h, lines 108-109:	N170 -{long int atol(const char *__nptr);}-> N171
/usr/include/stdlib.h, lines 113-114:	N171 -{long long int atoll(const char *__nptr);}-> N172
/usr/include/stdlib.h, lines 118-120:	N172 -{double strtod(const char *__nptr, char **__endptr);}-> N173
/usr/include/stdlib.h, lines 124-125:	N173 -{float strtof(const char *__nptr, char **__endptr);}-> N174
/usr/include/stdlib.h, lines 127-129:	N174 -{long double strtold(const char *__nptr, char **__endptr);}-> N175
/usr/include/stdlib.h, lines 177-179:	N175 -{long int strtol(const char *__nptr, char **__endptr, int __base);}-> N176
/usr/include/stdlib.h, lines 181-183:	N176 -{unsigned long int strtoul(const char *__nptr, char **__endptr, int __base);}-> N177
/usr/include/stdlib.h, lines 188-190:	N177 -{long long int strtoq(const char *__nptr, char **__endptr, int __base);}-> N178
/usr/include/stdlib.h, lines 193-195:	N178 -{unsigned long long int strtouq(const char *__nptr, char **__endptr, int __base);}-> N179
/usr/include/stdlib.h, lines 201-203:	N179 -{long long int strtoll(const char *__nptr, char **__endptr, int __base);}-> N180
/usr/include/stdlib.h, lines 206-208:	N180 -{unsigned long long int strtoull(const char *__nptr, char **__endptr, int __base);}-> N181
/usr/include/stdlib.h, line 386:	N181 -{char *l64a(long int __n);}-> N182
/usr/include/stdlib.h, lines 389-390:	N182 -{long int a64l(const char *__s);}-> N183
/usr/include/x86_64-linux-gnu/sys/types.h, line 33:	N183 -{typedef __u_char u_char;}-> N184
/usr/include/x86_64-linux-gnu/sys/types.h, line 34:	N184 -{typedef __u_short u_short;}-> N185
/usr/include/x86_64-linux-gnu/sys/types.h, line 35:	N185 -{typedef __u_int u_int;}-> N186
/usr/include/x86_64-linux-gnu/sys/types.h, line 36:	N186 -{typedef __u_long u_long;}-> N187
/usr/include/x86_64-linux-gnu/sys/types.h, line 37:	N187 -{typedef __quad_t quad_t;}-> N188
/usr/include/x86_64-linux-gnu/sys/types.h, line 38:	N188 -{typedef __u_quad_t u_quad_t;}-> N189
/usr/include/x86_64-linux-gnu/sys/types.h, line 39:	N189 -{typedef __fsid_t fsid_t;}-> N190
/usr/include/x86_64-linux-gnu/sys/types.h, line 42:	N190 -{typedef __loff_t loff_t;}-> N191
/usr/include/x86_64-linux-gnu/sys/types.h, line 47:	N191 -{typedef __ino_t ino_t;}-> N192
/usr/include/x86_64-linux-gnu/sys/types.h, line 59:	N192 -{typedef __dev_t dev_t;}-> N193
/usr/include/x86_64-linux-gnu/sys/types.h, line 64:	N193 -{typedef __gid_t gid_t;}-> N194
/usr/include/x86_64-linux-gnu/sys/types.h, line 69:	N194 -{typedef __mode_t mode_t;}-> N195
/usr/include/x86_64-linux-gnu/sys/types.h, line 74:	N195 -{typedef __nlink_t nlink_t;}-> N196
/usr/include/x86_64-linux-gnu/sys/types.h, line 79:	N196 -{typedef __uid_t uid_t;}-> N197
/usr/include/x86_64-linux-gnu/sys/types.h, line 85:	N197 -{typedef __off_t off_t;}-> N198
/usr/include/x86_64-linux-gnu/sys/types.h, line 97:	N198 -{typedef __pid_t pid_t;}-> N199
/usr/include/x86_64-linux-gnu/sys/types.h, line 103:	N199 -{typedef __id_t id_t;}-> N200
/usr/include/x86_64-linux-gnu/sys/types.h, line 108:	N200 -{typedef __ssize_t ssize_t;}-> N201
/usr/include/x86_64-linux-gnu/sys/types.h, line 114:	N201 -{typedef __daddr_t daddr_t;}-> N202
/usr/include/x86_64-linux-gnu/sys/types.h, line 115:	N202 -{typedef __caddr_t caddr_t;}-> N203
/usr/include/x86_64-linux-gnu/sys/types.h, line 121:	N203 -{typedef __key_t key_t;}-> N204
/usr/include/x86_64-linux-gnu/bits/types/clock_t.h, line 7:	N204 -{typedef __clock_t clock_t;}-> N205
/usr/include/x86_64-linux-gnu/bits/types/clockid_t.h, line 7:	N205 -{typedef __clockid_t clockid_t;}-> N206
/usr/include/x86_64-linux-gnu/bits/types/time_t.h, line 10:	N206 -{typedef __time_t time_t;}-> N207
/usr/include/x86_64-linux-gnu/bits/types/timer_t.h, line 7:	N207 -{typedef __timer_t timer_t;}-> N208
/usr/include/x86_64-linux-gnu/sys/types.h, line 148:	N208 -{typedef unsigned long int ulong;}-> N209
/usr/include/x86_64-linux-gnu/sys/types.h, line 149:	N209 -{typedef unsigned short int ushort;}-> N210
/usr/include/x86_64-linux-gnu/sys/types.h, line 150:	N210 -{typedef unsigned int uint;}-> N211
/usr/include/x86_64-linux-gnu/sys/types.h, line 158:	N211 -{typedef __uint8_t u_int8_t;}-> N212
/usr/include/x86_64-linux-gnu/sys/types.h, line 159:	N212 -{typedef __uint16_t u_int16_t;}-> N213
/usr/include/x86_64-linux-gnu/sys/types.h, line 160:	N213 -{typedef __uint32_t u_int32_t;}-> N214
/usr/include/x86_64-linux-gnu/sys/types.h, line 161:	N214 -{typedef __uint64_t u_int64_t;}-> N215
/usr/include/x86_64-linux-gnu/sys/types.h, line 164:	N215 -{typedef signed int register_t;}-> N216
/usr/include/x86_64-linux-gnu/bits/byteswap.h, lines 33-41:	N216 -{__uint16_t __bswap_16(__uint16_t __bsx);}-> N217
/usr/include/x86_64-linux-gnu/bits/byteswap.h, lines 48-56:	N217 -{__uint32_t __bswap_32(__uint32_t __bsx);}-> N218
/usr/include/x86_64-linux-gnu/bits/byteswap.h, lines 69-77:	N218 -{__uint64_t __bswap_64(__uint64_t __bsx);}-> N219
/usr/include/x86_64-linux-gnu/bits/uintn-identity.h, lines 32-36:	N219 -{__uint16_t __uint16_identity(__uint16_t __x);}-> N220
/usr/include/x86_64-linux-gnu/bits/uintn-identity.h, lines 38-42:	N220 -{__uint32_t __uint32_identity(__uint32_t __x);}-> N221
/usr/include/x86_64-linux-gnu/bits/uintn-identity.h, lines 44-48:	N221 -{__uint64_t __uint64_identity(__uint64_t __x);}-> N222
/usr/include/x86_64-linux-gnu/bits/types/__sigset_t.h, lines 5-8:	N222 -{struct __anon_type___sigset_t {   unsigned long int __val[32UL]; } ;}-> N223
/usr/include/x86_64-linux-gnu/bits/types/__sigset_t.h, lines 5-8:	N223 -{typedef struct __anon_type___sigset_t __sigset_t;}-> N224
/usr/include/x86_64-linux-gnu/bits/types/sigset_t.h, line 7:	N224 -{typedef __sigset_t sigset_t;}-> N225
/usr/include/x86_64-linux-gnu/bits/types/struct_timeval.h, lines 8-17:	N225 -{struct timeval {   __time_t tv_sec;   __suseconds_t tv_usec; } ;}-> N226
/usr/include/x86_64-linux-gnu/bits/types/struct_timespec.h, lines 11-31:	N226 -{struct timespec {   __time_t tv_sec;   __syscall_slong_t tv_nsec; } ;}-> N227
/usr/include/x86_64-linux-gnu/sys/select.h, line 43:	N227 -{typedef __suseconds_t suseconds_t;}-> N228
/usr/include/x86_64-linux-gnu/sys/select.h, line 49:	N228 -{typedef long int __fd_mask;}-> N229
/usr/include/x86_64-linux-gnu/sys/select.h, lines 59-70:	N229 -{struct __anon_type_fd_set {   __fd_mask __fds_bits[32]; } ;}-> N230
/usr/include/x86_64-linux-gnu/sys/select.h, lines 59-70:	N230 -{typedef struct __anon_type_fd_set fd_set;}-> N231
/usr/include/x86_64-linux-gnu/sys/select.h, line 77:	N231 -{typedef __fd_mask fd_mask;}-> N232
/usr/include/x86_64-linux-gnu/sys/select.h, lines 102-105:	N232 -{int select(int __nfds, fd_set *__readfds, fd_set *__writefds, fd_set *__exceptfds, struct timeval *__timeout);}-> N233
/usr/include/x86_64-linux-gnu/sys/select.h, lines 127-131:	N233 -{int pselect(int __nfds, fd_set *__readfds, fd_set *__writefds, fd_set *__exceptfds, const struct timespec *__timeout, const __sigset_t *__sigmask);}-> N234
/usr/include/x86_64-linux-gnu/sys/types.h, line 185:	N234 -{typedef __blksize_t blksize_t;}-> N235
/usr/include/x86_64-linux-gnu/sys/types.h, line 192:	N235 -{typedef __blkcnt_t blkcnt_t;}-> N236
/usr/include/x86_64-linux-gnu/sys/types.h, line 196:	N236 -{typedef __fsblkcnt_t fsblkcnt_t;}-> N237
/usr/include/x86_64-linux-gnu/sys/types.h, line 200:	N237 -{typedef __fsfilcnt_t fsfilcnt_t;}-> N238
/usr/include/x86_64-linux-gnu/bits/atomic_wide_counter.h, lines 28-32:	N238 -{struct __anon_type_0 {   unsigned int __low;   unsigned int __high; } ;}-> N239
/usr/include/x86_64-linux-gnu/bits/atomic_wide_counter.h, lines 25-33:	N239 -{union __anon_type___atomic_wide_counter {   unsigned long long int __value64;   struct __anon_type_0 __value32; } ;}-> N240
/usr/include/x86_64-linux-gnu/bits/atomic_wide_counter.h, lines 25-33:	N240 -{typedef union __anon_type___atomic_wide_counter __atomic_wide_counter;}-> N241
/usr/include/x86_64-linux-gnu/bits/thread-shared-types.h, lines 51-55:	N241 -{struct __pthread_internal_list {   struct __pthread_internal_list *__prev;   struct __pthread_internal_list *__next; } ;}-> N242
/usr/include/x86_64-linux-gnu/bits/thread-shared-types.h, lines 51-55:	N242 -{typedef struct __pthread_internal_list __pthread_list_t;}-> N243
/usr/include/x86_64-linux-gnu/bits/thread-shared-types.h, lines 57-60:	N243 -{struct __pthread_internal_slist {   struct __pthread_internal_slist *__next; } ;}-> N244
/usr/include/x86_64-linux-gnu/bits/thread-shared-types.h, lines 57-60:	N244 -{typedef struct __pthread_internal_slist __pthread_slist_t;}-> N245
/usr/include/x86_64-linux-gnu/bits/struct_mutex.h, lines 22-53:	N245 -{struct __pthread_mutex_s {   int __lock;   unsigned int __count;   int __owner;   unsigned int __nusers;   int __kind;   short __spins;   short __elision;   __pthread_list_t __list; } ;}-> N246
/usr/include/x86_64-linux-gnu/bits/struct_rwlock.h, lines 23-55:	N246 -{struct __pthread_rwlock_arch_t {   unsigned int __readers;   unsigned int __writers;   unsigned int __wrphase_futex;   unsigned int __writers_futex;   unsigned int __pad3;   unsigned int __pad4;   int __cur_writer;   int __shared;   signed char __rwelision;   unsigned char __pad1[7];   unsigned long int __pad2;   unsigned int __flags; } ;}-> N247
/usr/include/x86_64-linux-gnu/bits/thread-shared-types.h, lines 94-103:	N247 -{struct __pthread_cond_s {   __atomic_wide_counter __wseq;   __atomic_wide_counter __g1_start;   unsigned int __g_refs[2];   unsigned int __g_size[2];   unsigned int __g1_orig_size;   unsigned int __wrefs;   unsigned int __g_signals[2]; } ;}-> N248
/usr/include/x86_64-linux-gnu/bits/thread-shared-types.h, line 105:	N248 -{typedef unsigned int __tss_t;}-> N249
/usr/include/x86_64-linux-gnu/bits/thread-shared-types.h, line 106:	N249 -{typedef unsigned long int __thrd_t;}-> N250
/usr/include/x86_64-linux-gnu/bits/thread-shared-types.h, lines 108-111:	N250 -{struct __anon_type___once_flag {   int __data; } ;}-> N251
/usr/include/x86_64-linux-gnu/bits/thread-shared-types.h, lines 108-111:	N251 -{typedef struct __anon_type___once_flag __once_flag;}-> N252
/usr/include/x86_64-linux-gnu/bits/pthreadtypes.h, line 27:	N252 -{typedef unsigned long int pthread_t;}-> N253
/usr/include/x86_64-linux-gnu/bits/pthreadtypes.h, lines 32-36:	N253 -{union __anon_type_pthread_mutexattr_t {   char __size[4];   int __align; } ;}-> N254
/usr/include/x86_64-linux-gnu/bits/pthreadtypes.h, lines 32-36:	N254 -{typedef union __anon_type_pthread_mutexattr_t pthread_mutexattr_t;}-> N255
/usr/include/x86_64-linux-gnu/bits/pthreadtypes.h, lines 41-45:	N255 -{union __anon_type_pthread_condattr_t {   char __size[4];   int __align; } ;}-> N256
/usr/include/x86_64-linux-gnu/bits/pthreadtypes.h, lines 41-45:	N256 -{typedef union __anon_type_pthread_mutexattr_t pthread_condattr_t;}-> N257
/usr/include/x86_64-linux-gnu/bits/pthreadtypes.h, line 49:	N257 -{typedef unsigned int pthread_key_t;}-> N258
/usr/include/x86_64-linux-gnu/bits/pthreadtypes.h, line 53:	N258 -{typedef int pthread_once_t;}-> N259
/usr/include/x86_64-linux-gnu/bits/pthreadtypes.h, lines 56-60:	N259 -{union pthread_attr_t {   char __size[56];   long int __align; } ;}-> N260
/usr/include/x86_64-linux-gnu/bits/pthreadtypes.h, line 62:	N260 -{typedef union pthread_attr_t pthread_attr_t;}-> N261
/usr/include/x86_64-linux-gnu/bits/pthreadtypes.h, lines 67-72:	N261 -{union __anon_type_pthread_mutex_t {   struct __pthread_mutex_s __data;   char __size[40];   long int __align; } ;}-> N262
/usr/include/x86_64-linux-gnu/bits/pthreadtypes.h, lines 67-72:	N262 -{typedef union __anon_type_pthread_mutex_t pthread_mutex_t;}-> N263
/usr/include/x86_64-linux-gnu/bits/pthreadtypes.h, lines 75-80:	N263 -{union __anon_type_pthread_cond_t {   struct __pthread_cond_s __data;   char __size[48];   long long int __align; } ;}-> N264
/usr/include/x86_64-linux-gnu/bits/pthreadtypes.h, lines 75-80:	N264 -{typedef union __anon_type_pthread_cond_t pthread_cond_t;}-> N265
/usr/include/x86_64-linux-gnu/bits/pthreadtypes.h, lines 86-91:	N265 -{union __anon_type_pthread_rwlock_t {   struct __pthread_rwlock_arch_t __data;   char __size[56];   long int __align; } ;}-> N266
/usr/include/x86_64-linux-gnu/bits/pthreadtypes.h, lines 86-91:	N266 -{typedef union __anon_type_pthread_rwlock_t pthread_rwlock_t;}-> N267
/usr/include/x86_64-linux-gnu/bits/pthreadtypes.h, lines 93-97:	N267 -{union __anon_type_pthread_rwlockattr_t {   char __size[8];   long int __align; } ;}-> N268
/usr/include/x86_64-linux-gnu/bits/pthreadtypes.h, lines 93-97:	N268 -{typedef union __anon_type_pthread_rwlockattr_t pthread_rwlockattr_t;}-> N269
/usr/include/x86_64-linux-gnu/bits/pthreadtypes.h, line 103:	N269 -{typedef volatile int pthread_spinlock_t;}-> N270
/usr/include/x86_64-linux-gnu/bits/pthreadtypes.h, lines 108-112:	N270 -{union __anon_type_pthread_barrier_t {   char __size[32];   long int __align; } ;}-> N271
/usr/include/x86_64-linux-gnu/bits/pthreadtypes.h, lines 108-112:	N271 -{typedef union __anon_type_pthread_barrier_t pthread_barrier_t;}-> N272
/usr/include/x86_64-linux-gnu/bits/pthreadtypes.h, lines 114-118:	N272 -{union __anon_type_pthread_barrierattr_t {   char __size[4];   int __align; } ;}-> N273
/usr/include/x86_64-linux-gnu/bits/pthreadtypes.h, lines 114-118:	N273 -{typedef union __anon_type_pthread_mutexattr_t pthread_barrierattr_t;}-> N274
/usr/include/stdlib.h, line 402:	N274 -{long int random();}-> N275
/usr/include/stdlib.h, line 405:	N275 -{void srandom(unsigned int __seed);}-> N276
/usr/include/stdlib.h, lines 411-412:	N276 -{char *initstate(unsigned int __seed, char *__statebuf, size_t __statelen);}-> N277
/usr/include/stdlib.h, line 416:	N277 -{char *setstate(char *__statebuf);}-> N278
/usr/include/stdlib.h, lines 424-433:	N278 -{struct random_data {   int32_t *fptr;   int32_t *rptr;   int32_t *state;   int rand_type;   int rand_deg;   int rand_sep;   int32_t *end_ptr; } ;}-> N279
/usr/include/stdlib.h, lines 435-436:	N279 -{int random_r(struct random_data *__buf, int32_t *__result);}-> N280
/usr/include/stdlib.h, lines 438-439:	N280 -{int srandom_r(unsigned int __seed, struct random_data *__buf);}-> N281
/usr/include/stdlib.h, lines 441-444:	N281 -{int initstate_r(unsigned int __seed, char *__statebuf, size_t __statelen, struct random_data *__buf);}-> N282
/usr/include/stdlib.h, lines 446-448:	N282 -{int setstate_r(char *__statebuf, struct random_data *__buf);}-> N283
/usr/include/stdlib.h, line 454:	N283 -{int rand();}-> N284
/usr/include/stdlib.h, line 456:	N284 -{void srand(unsigned int __seed);}-> N285
/usr/include/stdlib.h, line 460:	N285 -{int rand_r(unsigned int *__seed);}-> N286
/usr/include/stdlib.h, line 468:	N286 -{double drand48();}-> N287
/usr/include/stdlib.h, line 469:	N287 -{double erand48(unsigned short int __xsubi[3]);}-> N288
/usr/include/stdlib.h, line 472:	N288 -{long int lrand48();}-> N289
/usr/include/stdlib.h, lines 473-474:	N289 -{long int nrand48(unsigned short int __xsubi[3]);}-> N290
/usr/include/stdlib.h, line 477:	N290 -{long int mrand48();}-> N291
/usr/include/stdlib.h, lines 478-479:	N291 -{long int jrand48(unsigned short int __xsubi[3]);}-> N292
/usr/include/stdlib.h, line 482:	N292 -{void srand48(long int __seedval);}-> N293
/usr/include/stdlib.h, lines 483-484:	N293 -{unsigned short int *seed48(unsigned short int __seed16v[3]);}-> N294
/usr/include/stdlib.h, line 485:	N294 -{void lcong48(unsigned short int __param[7]);}-> N295
/usr/include/stdlib.h, lines 491-499:	N295 -{struct drand48_data {   unsigned short int __x[3];   unsigned short int __old_x[3];   unsigned short int __c;   unsigned short int __init;   unsigned long long int __a; } ;}-> N296
/usr/include/stdlib.h, lines 502-503:	N296 -{int drand48_r(struct drand48_data *__buffer, double *__result);}-> N297
/usr/include/stdlib.h, lines 504-506:	N297 -{int erand48_r(unsigned short int __xsubi[3], struct drand48_data *__buffer, double *__result);}-> N298
/usr/include/stdlib.h, lines 509-511:	N298 -{int lrand48_r(struct drand48_data *__buffer, long int *__result);}-> N299
/usr/include/stdlib.h, lines 512-515:	N299 -{int nrand48_r(unsigned short int __xsubi[3], struct drand48_data *__buffer, long int *__result);}-> N300
/usr/include/stdlib.h, lines 518-520:	N300 -{int mrand48_r(struct drand48_data *__buffer, long int *__result);}-> N301
/usr/include/stdlib.h, lines 521-524:	N301 -{int jrand48_r(unsigned short int __xsubi[3], struct drand48_data *__buffer, long int *__result);}-> N302
/usr/include/stdlib.h, lines 527-528:	N302 -{int srand48_r(long int __seedval, struct drand48_data *__buffer);}-> N303
/usr/include/stdlib.h, lines 530-531:	N303 -{int seed48_r(unsigned short int __seed16v[3], struct drand48_data *__buffer);}-> N304
/usr/include/stdlib.h, lines 533-535:	N304 -{int lcong48_r(unsigned short int __param[7], struct drand48_data *__buffer);}-> N305
/usr/include/stdlib.h, lines 540-541:	N305 -{void *malloc(size_t __size);}-> N306
/usr/include/stdlib.h, lines 543-544:	N306 -{void *calloc(size_t __nmemb, size_t __size);}-> N307
/usr/include/stdlib.h, lines 551-552:	N307 -{void *realloc(void *__ptr, size_t __size);}-> N308
/usr/include/stdlib.h, line 555:	N308 -{void free(void *__ptr);}-> N309
/usr/include/stdlib.h, lines 563-566:	N309 -{void *reallocarray(void *__ptr, size_t __nmemb, size_t __size);}-> N310
/usr/include/alloca.h, line 32:	N310 -{void *alloca(size_t __size);}-> N311
/usr/include/stdlib.h, lines 580-581:	N311 -{void *valloc(size_t __size);}-> N312
/usr/include/stdlib.h, lines 586-587:	N312 -{int posix_memalign(void **__memptr, size_t __alignment, size_t __size);}-> N313
/usr/include/stdlib.h, lines 592-594:	N313 -{void *aligned_alloc(size_t __alignment, size_t __size);}-> N314
/usr/include/stdlib.h, line 598:	N314 -{void abort();}-> N315
/usr/include/stdlib.h, line 602:	N315 -{int atexit(void (*__func)());}-> N316
/usr/include/stdlib.h, line 610:	N316 -{int at_quick_exit(void (*__func)());}-> N317
/usr/include/stdlib.h, lines 617-618:	N317 -{int on_exit(void (*__func)(int __status, void *__arg), void *__arg);}-> N318
/usr/include/stdlib.h, line 624:	N318 -{void exit(int __status);}-> N319
/usr/include/stdlib.h, line 630:	N319 -{void quick_exit(int __status);}-> N320
/usr/include/stdlib.h, line 636:	N320 -{void _Exit(int __status);}-> N321
/usr/include/stdlib.h, line 641:	N321 -{char *getenv(const char *__name);}-> N322
/usr/include/stdlib.h, line 654:	N322 -{int putenv(char *__string);}-> N323
/usr/include/stdlib.h, lines 660-661:	N323 -{int setenv(const char *__name, const char *__value, int __replace);}-> N324
/usr/include/stdlib.h, line 664:	N324 -{int unsetenv(const char *__name);}-> N325
/usr/include/stdlib.h, line 671:	N325 -{int clearenv();}-> N326
/usr/include/stdlib.h, line 682:	N326 -{char *mktemp(char *__template);}-> N327
/usr/include/stdlib.h, line 695:	N327 -{int mkstemp(char *__template);}-> N328
/usr/include/stdlib.h, line 717:	N328 -{int mkstemps(char *__template, int __suffixlen);}-> N329
/usr/include/stdlib.h, line 738:	N329 -{char *mkdtemp(char *__template);}-> N330
/usr/include/stdlib.h, line 791:	N330 -{int system(const char *__command);}-> N331
/usr/include/stdlib.h, lines 808-809:	N331 -{char *realpath(const char *__name, char *__resolved);}-> N332
/usr/include/stdlib.h, line 816:	N332 -{typedef int (*__compar_fn_t)(const void *, const void *);}-> N333
/usr/include/stdlib.h, lines 828-830:	N333 -{void *bsearch(const void *__key, const void *__base, size_t __nmemb, size_t __size, __compar_fn_t __compar);}-> N334
/usr/include/stdlib.h, lines 838-839:	N334 -{void qsort(void *__base, size_t __nmemb, size_t __size, __compar_fn_t __compar);}-> N335
/usr/include/stdlib.h, line 848:	N335 -{int abs(int __x);}-> N336
/usr/include/stdlib.h, line 849:	N336 -{long int labs(long int __x);}-> N337
/usr/include/stdlib.h, lines 852-853:	N337 -{long long int llabs(long long int __x);}-> N338
/usr/include/stdlib.h, lines 860-861:	N338 -{div_t div(int __numer, int __denom);}-> N339
/usr/include/stdlib.h, lines 862-863:	N339 -{ldiv_t ldiv(long int __numer, long int __denom);}-> N340
/usr/include/stdlib.h, lines 866-868:	N340 -{lldiv_t lldiv(long long int __numer, long long int __denom);}-> N341
/usr/include/stdlib.h, lines 880-881:	N341 -{char *ecvt(double __value, int __ndigit, int *__decpt, int *__sign);}-> N342
/usr/include/stdlib.h, lines 886-887:	N342 -{char *fcvt(double __value, int __ndigit, int *__decpt, int *__sign);}-> N343
/usr/include/stdlib.h, lines 892-893:	N343 -{char *gcvt(double __value, int __ndigit, char *__buf);}-> N344
/usr/include/stdlib.h, lines 898-900:	N344 -{char *qecvt(long double __value, int __ndigit, int *__decpt, int *__sign);}-> N345
/usr/include/stdlib.h, lines 901-903:	N345 -{char *qfcvt(long double __value, int __ndigit, int *__decpt, int *__sign);}-> N346
/usr/include/stdlib.h, lines 904-905:	N346 -{char *qgcvt(long double __value, int __ndigit, char *__buf);}-> N347
/usr/include/stdlib.h, lines 910-912:	N347 -{int ecvt_r(double __value, int __ndigit, int *__decpt, int *__sign, char *__buf, size_t __len);}-> N348
/usr/include/stdlib.h, lines 913-915:	N348 -{int fcvt_r(double __value, int __ndigit, int *__decpt, int *__sign, char *__buf, size_t __len);}-> N349
/usr/include/stdlib.h, lines 917-920:	N349 -{int qecvt_r(long double __value, int __ndigit, int *__decpt, int *__sign, char *__buf, size_t __len);}-> N350
/usr/include/stdlib.h, lines 921-924:	N350 -{int qfcvt_r(long double __value, int __ndigit, int *__decpt, int *__sign, char *__buf, size_t __len);}-> N351
/usr/include/stdlib.h, line 930:	N351 -{int mblen(const char *__s, size_t __n);}-> N352
/usr/include/stdlib.h, lines 933-934:	N352 -{int mbtowc(wchar_t *__pwc, const char *__s, size_t __n);}-> N353
/usr/include/stdlib.h, line 937:	N353 -{int wctomb(char *__s, wchar_t __wchar);}-> N354
/usr/include/stdlib.h, lines 941-943:	N354 -{size_t mbstowcs(wchar_t *__pwcs, const char *__s, size_t __n);}-> N355
/usr/include/stdlib.h, lines 945-949:	N355 -{size_t wcstombs(char *__s, const wchar_t *__pwcs, size_t __n);}-> N356
/usr/include/stdlib.h, line 956:	N356 -{int rpmatch(const char *__response);}-> N357
/usr/include/stdlib.h, lines 967-970:	N357 -{int getsubopt(char **__optionp, char * const *__tokens, char **__valuep);}-> N358
/usr/include/stdlib.h, lines 1013-1014:	N358 -{int getloadavg(double __loadavg[], int __nelem);}-> N359
lines 8-10:	N359 -{void assume(int cond);}-> N360
lines 12-27:	N360 -{int main();}-> N361
none:	N361 -{Function start dummy edge}-> N38
line 14:	N38 -{int local_18;}-> N39
line 15:	N39 -{uint local_14;}-> N40
line 16:	N40 -{uint y;}-> N41
line 17:	N41 -{uint x;}-> N42
line 19:	N42 -{local_18 = 1;}-> N43
	local_18 == 1;
line 20:	N43 -{for}-> N44
lines 20-22:	N44 -{local_14 = 0;}-> N45
	local_14 == 0U;
line 20:	N45 -{[local_14 < 6]}-> N47
	local_14 == 0U;
	local_14 == 0U;
line 21:	N47 -{local_18 = local_18 << 1;}-> N49
	local_18 == 2;
none:	N49 -{}-> N46
lines 20-22:	N46 -{local_14 = local_14 + 1;}-> N45
	local_14 == 1U;
line 20:	N45 -{[local_14 < 6]}-> N47
	local_14 == 1U;
	local_14 == 1U;
line 21:	N47 -{local_18 = local_18 << 1;}-> N49
	local_18 == 4;
none:	N49 -{}-> N46
lines 20-22:	N46 -{local_14 = local_14 + 1;}-> N45
	local_14 == 2U;
line 20:	N45 -{[local_14 < 6]}-> N47
	local_14 == 2U;
	local_14 == 2U;
line 21:	N47 -{local_18 = local_18 << 1;}-> N49
	local_18 == 8;
none:	N49 -{}-> N46
lines 20-22:	N46 -{local_14 = local_14 + 1;}-> N45
	local_14 == 3U;
line 20:	N45 -{[local_14 < 6]}-> N47
	local_14 == 3U;
	local_14 == 3U;
line 21:	N47 -{local_18 = local_18 << 1;}-> N49
	local_18 == 16;
none:	N49 -{}-> N46
lines 20-22:	N46 -{local_14 = local_14 + 1;}-> N45
	local_14 == 4U;
line 20:	N45 -{[local_14 < 6]}-> N47
	local_14 == 4U;
	local_14 == 4U;
line 21:	N47 -{local_18 = local_18 << 1;}-> N49
	local_18 == 32;
none:	N49 -{}-> N46
lines 20-22:	N46 -{local_14 = local_14 + 1;}-> N45
	local_14 == 5U;
line 20:	N45 -{[local_14 < 6]}-> N47
	local_14 == 5U;
	local_14 == 5U;
line 21:	N47 -{local_18 = local_18 << 1;}-> N49
	local_18 == 64;
none:	N49 -{}-> N46
lines 20-22:	N46 -{local_14 = local_14 + 1;}-> N45
	local_14 == 6U;
line 20:	N45 -{[!(local_14 < 6)]}-> N48
	local_14 == 6U;
	local_14 == 6U;
line 23:	N48 -{[local_18 == 64]}-> N51
	local_18 == 64;
	local_18 == 64;
line 24:	N51 -{int __CPAchecker_TMP_2;}-> N52
line 24:	N52 -{}-> N54
line 24:	N54 -{__CPAchecker_TMP_2 = 0;}-> N56
line 24:	N56 -{4UL;}-> N57
line 24:	N57 -{}-> N60
line 24:	N60 -{__assert_fail("0 && \"Assertion failed: y != 64\"", "/home/zyl/biVerify/CPA_DATA2/C/F/llmfix/realOutput/iterationTry/underapprox_1-1_process_dc_iter1.c", 24, "__PRETTY_FUNCTION__");}-> N363
